r = [
0,160,166,126,280,66,5,106,85,66,55,131,177,57,195,75,232,61,185,266,160,245,228,284,21,141,0
];
p = [
0,22,8,24,1,4,2,14,7,9,29,22,8,9,8,13,9,3,11,6,10,24,4,27,19,23,0
];
e = [
0,7,15,9,6,18,13,12,10,8,17,10,9,1,1,5,11,1,13,5,13,16,3,7,3,10,0
];
d = [
0,236,211,190,288,107,86,173,92,75,84,203,185,130,203,88,241,64,278,272,225,335,232,311,44,164,347
];
d_bar = [
0,247,215,202,289,109,87,180,96,80,99,214,189,135,207,95,246,66,284,275,230,347,234,325,54,176,347
];
w = [
0,0.636363636,3.75,0.75,6,9,13,1.714285714,2.5,1.6,1.133333333,0.909090909,2.25,0.2,0.25,0.714285714,2.2,0.5,2.166666667,1.666666667,2.6,1.333333333,1.5,0.5,0.3,0.833333333,0
];
